161 5
10 10 10 10 10 

0 0 0 0 0 0 5 2 24 46 68 80 
0 0 0 0 0 0 2 3 5 
8 3 0 0 2 0 2 8 4 
2 9 0 0 8 0 1 6 
2 10 0 0 6 0 1 6 
1 7 0 0 6 0 1 7 
4 9 0 0 10 0 1 9 
7 9 0 0 10 0 2 9 37 
2 8 0 0 10 0 1 10 
4 7 0 0 9 0 2 12 11 
6 9 0 0 6 0 1 13 
8 9 0 0 8 0 1 13 
10 4 0 0 5 0 2 19 14 
6 10 0 0 5 0 1 15 
8 5 0 0 6 0 1 16 
7 10 0 0 8 0 2 22 17 
7 8 0 0 8 0 1 18 
4 2 0 0 8 0 1 20 
4 6 0 0 9 0 1 20 
7 8 0 0 8 0 1 21 
3 10 0 0 8 0 1 23 
2 7 0 0 10 0 1 23 
0 0 0 0 0 0 1 126 
0 0 0 0 0 0 2 25 28 
7 0 0 3 0 2 1 26 
2 0 0 5 0 5 2 44 27 
9 0 0 9 0 6 3 43 32 29 
3 0 0 6 0 10 2 32 31 
3 0 0 5 0 10 1 30 
1 0 0 4 0 6 1 31 
9 0 0 8 0 10 1 33 
8 0 0 9 0 9 1 33 
7 0 0 8 0 10 1 34 
3 0 0 10 0 5 1 35 
6 0 0 6 0 3 1 36 
1 0 0 7 0 10 2 42 37 
9 0 0 9 0 10 1 38 
1 0 0 6 0 9 1 39 
3 0 0 10 0 6 1 40 
9 0 0 6 0 9 1 41 
3 0 0 10 0 10 1 45 
3 0 0 10 0 4 1 45 
10 0 0 10 0 10 1 45 
2 0 0 9 0 6 1 45 
0 0 0 0 0 0 1 126 
0 0 0 0 0 0 1 47 
10 0 2 0 3 0 2 52 48 
9 0 5 0 6 0 2 56 49 
1 0 5 0 4 0 2 58 50 
8 0 10 0 7 0 1 51 
2 0 10 0 9 0 2 62 53 
4 0 7 0 8 0 3 62 58 55 
6 0 9 0 10 0 1 54 
3 0 5 0 8 0 1 55 
2 0 5 0 10 0 2 59 57 
4 0 9 0 9 0 2 60 58 
10 0 4 0 10 0 1 60 
2 0 10 0 7 0 1 59 
9 0 8 0 7 0 1 61 
2 0 10 0 6 0 1 61 
4 0 10 0 8 0 1 63 
5 0 8 0 9 0 1 63 
5 0 10 0 9 0 1 64 
3 0 9 0 5 0 1 65 
5 0 5 0 5 0 1 66 
4 0 9 0 10 0 1 67 
0 0 0 0 0 0 1 126 
0 0 0 0 0 0 3 69 74 77 
10 0 0 6 0 0 2 76 70 
6 0 0 5 0 0 1 71 
10 0 0 7 0 0 1 72 
2 0 0 10 0 0 1 73 
6 0 0 7 0 0 1 75 
2 0 0 9 0 0 1 75 
5 0 0 6 0 0 1 78 
8 0 0 8 0 0 1 78 
9 0 0 8 0 0 1 78 
6 0 0 9 0 0 1 79 
0 0 0 0 0 0 2 102 114 
0 0 0 0 0 0 3 81 90 100 
9 5 0 0 0 5 3 99 92 82 
10 5 0 0 0 6 1 83 
6 6 0 0 0 10 1 84 
4 10 0 0 0 2 1 85 
10 9 0 0 0 9 1 86 
5 9 0 0 0 5 1 87 
6 5 0 0 0 6 1 88 
5 6 0 0 0 10 1 89 
3 6 0 0 0 9 2 98 91 
3 7 0 0 0 10 2 98 91 
8 7 0 0 0 10 1 93 
1 9 0 0 0 9 1 93 
9 6 0 0 0 8 1 94 
5 9 0 0 0 9 1 95 
1 9 0 0 0 6 1 96 
6 10 0 0 0 10 1 97 
7 9 0 0 0 4 1 101 
3 8 0 0 0 7 1 101 
6 8 0 0 0 7 1 101 
4 7 0 0 0 8 1 101 
0 0 0 0 0 0 1 126 
0 0 0 0 0 0 2 103 106 
10 0 0 0 5 0 1 104 
6 0 0 0 7 0 1 105 
6 0 0 0 6 0 2 112 107 
1 0 0 0 6 0 2 112 107 
3 0 0 0 10 0 2 111 108 
6 0 0 0 10 0 1 109 
2 0 0 0 4 0 1 110 
1 0 0 0 7 0 1 113 
5 0 0 0 10 0 1 113 
10 0 0 0 10 0 1 113 
0 0 0 0 0 0 1 126 
0 0 0 0 0 0 2 115 120 
9 0 0 2 0 0 1 116 
1 0 0 10 0 0 2 124 117 
1 0 0 4 0 0 2 122 118 
2 0 0 8 0 0 1 119 
6 0 0 9 0 0 1 121 
9 0 0 7 0 0 1 121 
2 0 0 10 0 0 1 123 
5 0 0 8 0 0 1 123 
7 0 0 7 0 0 1 125 
4 0 0 10 0 0 1 125 
0 0 0 0 0 0 1 126 
0 0 0 0 0 0 3 127 128 136 
2 0 5 0 0 0 2 131 129 
6 0 6 0 0 0 1 129 
7 0 10 0 0 0 1 130 
9 0 10 0 0 0 1 132 
2 0 8 0 0 0 1 132 
1 0 8 0 0 0 1 133 
2 0 8 0 0 0 1 134 
6 0 4 0 0 0 1 135 
8 0 8 0 0 0 1 137 
10 0 8 0 0 0 1 137 
0 0 0 0 0 0 1 138 
0 0 0 0 0 0 3 139 147 148 
7 0 0 0 2 0 1 140 
8 0 0 0 10 0 1 141 
1 0 0 0 8 0 2 145 142 
5 0 0 0 6 0 1 143 
4 0 0 0 10 0 1 144 
6 0 0 0 7 0 1 146 
6 0 0 0 9 0 1 146 
8 0 0 0 4 0 1 149 
8 0 0 0 10 0 1 149 
10 0 0 0 9 0 1 149 
0 0 0 0 0 0 1 150 
0 0 0 0 0 0 3 151 154 159 
8 0 0 0 1 0 1 152 
1 0 0 0 10 0 1 153 
8 0 0 0 5 0 2 157 155 
7 0 0 0 6 0 1 155 
4 0 0 0 10 0 1 156 
4 0 0 0 6 0 1 158 
4 0 0 0 10 0 1 158 
2 0 0 0 8 0 1 160 
4 0 0 0 9 0 1 160 
9 0 0 0 10 0 1 161 
0 0 0 0 0 0 0 
